68
2 115 95 
2 68 56 
2 44 42 
2 72 117 
2 104 63 
2 101 94 
2 5 4 
2 74 53 
2 18 107 
2 75 27 
2 69 57 
2 6 93 
2 29 10 
2 12 105 
1 21 
2 78 8 
1 54 
2 92 98 
2 106 43 
2 16 14 
2 84 55 
1 113 
2 49 19 
2 17 35 
1 79 
1 45 
1 110 
2 80 32 
1 96 
2 86 30 
3 108 36 109 
2 62 2 
1 77 
2 31 102 
2 97 81 
3 26 46 60 
2 116 65 
2 24 87 
1 112 
2 111 67 
3 58 99 90 
2 38 40 
1 9 
1 15 
3 118 76 120 
1 7 
1 119 
2 23 100 
1 1 
1 89 
2 85 41 
2 20 71 
1 52 
2 83 91 
1 48 
2 82 47 
1 51 
3 22 33 11 
1 103 
2 66 3 
1 50 
1 37 
4 39 73 59 34 
2 13 64 
2 70 25 
2 114 28 
1 88 
1 61 
